nbGenes = 10;
preference = [[0 26 6 72 11 93 63 83 8 82 ]
[74 0 60 56 59 68 28 77 86 41 ]
[94 40 0 38 46 54 80 91 52 9 ]
[28 44 62 0 49 53 16 99 93 92 ]
[89 41 54 51 0 49 96 32 41 89 ]
[7 32 46 47 51 0 20 13 76 91 ]
[37 72 20 84 4 80 0 70 56 38 ]
[17 23 9 1 68 87 30 0 55 3 ]
[92 14 48 7 59 24 44 45 0 78 ]
[18 59 91 8 11 9 62 97 22 0 ]
];
